B=6;
D=1;
P=10;
S=10;
demands = [1 1 3 1 5 5 5 4 1 1 ];
capacities = [10 4 5 3 3 6 9 9 5 6 ];
dist_start = [7 5 3 10 2 4 3 2 8 4 ];
dist = [2 7 8 6 5 1 9 6 8 6 9 8 3 1 8 5 8 6 4 4 3 1 8 2 4 4 6 8 1 1 7 4 8 4 1 4 7 10 9 6 7 10 3 1 10 1 5 10 8 10 5 10 2 4 4 8 7 9 5 10 10 1 3 9 7 4 2 3 5 2 8 1 1 3 1 3 5 7 2 2 6 8 4 10 1 7 7 8 5 1 7 6 3 1 6 9 4 9 3 8 ];
